NAME : amz1154.182066_182066.tour
COMMENT : Cost = 182066_182066
COMMENT : Found by LKH-AMZ [Keld Helsgaun] Sun May 11 14:47:13 2025
COMMENT : TW viol.: 0 #: 0
TYPE : TOUR
DIMENSION : 137
TOUR_SECTION
31
56
25
106
133
28
88
85
101
54
114
137
26
33
103
19
122
49
96
35
77
17
127
86
9
79
64
50
21
47
46
58
43
125
14
87
6
89
60
70
22
45
61
94
32
98
27
69
116
67
24
62
7
113
91
13
8
39
97
107
111
30
37
74
75
59
131
53
95
129
68
63
134
90
108
10
40
20
124
11
2
121
110
48
65
93
102
34
66
123
115
135
100
136
4
5
109
76
72
120
71
15
51
126
57
83
78
55
16
118
132
92
3
119
130
1
36
42
38
81
29
128
105
44
99
104
12
23
82
18
52
84
112
41
117
80
73
-1
EOF
